p edge 85 1627
e 1 3
e 1 4
e 1 5
e 1 9
e 1 10
e 1 11
e 1 12
e 1 14
e 1 15
e 1 18
e 1 21
e 1 24
e 1 25
e 1 27
e 1 28
e 1 29
e 1 36
e 1 43
e 1 44
e 1 45
e 1 46
e 1 47
e 1 48
e 1 49
e 1 51
e 1 52
e 1 53
e 1 54
e 1 58
e 1 60
e 1 61
e 1 68
e 1 69
e 1 70
e 1 71
e 1 72
e 1 75
e 1 77
e 1 79
e 1 80
e 1 81
e 1 83
e 2 3
e 2 4
e 2 7
e 2 8
e 2 9
e 2 12
e 2 13
e 2 14
e 2 19
e 2 23
e 2 25
e 2 26
e 2 27
e 2 30
e 2 32
e 2 35
e 2 38
e 2 43
e 2 44
e 2 45
e 2 49
e 2 50
e 2 53
e 2 55
e 2 58
e 2 61
e 2 63
e 2 64
e 2 67
e 2 68
e 2 71
e 2 73
e 2 74
e 2 75
e 2 77
e 2 78
e 2 79
e 2 81
e 2 84
e 2 85
e 3 5
e 3 6
e 3 12
e 3 13
e 3 14
e 3 15
e 3 20
e 3 21
e 3 22
e 3 24
e 3 25
e 3 26
e 3 27
e 3 28
e 3 29
e 3 31
e 3 34
e 3 40
e 3 42
e 3 43
e 3 44
e 3 45
e 3 47
e 3 49
e 3 50
e 3 55
e 3 56
e 3 61
e 3 65
e 3 67
e 3 68
e 3 71
e 3 72
e 3 74
e 3 77
e 3 81
e 3 83
e 3 84
e 4 5
e 4 6
e 4 8
e 4 9
e 4 12
e 4 13
e 4 14
e 4 18
e 4 19
e 4 25
e 4 27
e 4 30
e 4 31
e 4 32
e 4 34
e 4 37
e 4 39
e 4 43
e 4 44
e 4 45
e 4 46
e 4 49
e 4 52
e 4 53
e 4 54
e 4 60
e 4 61
e 4 62
e 4 67
e 4 68
e 4 69
e 4 72
e 4 74
e 4 80
e 4 82
e 5 7
e 5 9
e 5 12
e 5 15
e 5 17
e 5 18
e 5 19
e 5 20
e 5 23
e 5 25
e 5 29
e 5 31
e 5 33
e 5 34
e 5 35
e 5 37
e 5 40
e 5 42
e 5 44
e 5 50
e 5 51
e 5 53
e 5 54
e 5 57
e 5 58
e 5 59
e 5 60
e 5 61
e 5 62
e 5 63
e 5 68
e 5 70
e 5 71
e 5 72
e 5 76
e 5 77
e 5 81
e 5 82
e 5 85
e 6 10
e 6 11
e 6 12
e 6 13
e 6 16
e 6 17
e 6 19
e 6 22
e 6 24
e 6 27
e 6 28
e 6 29
e 6 32
e 6 33
e 6 35
e 6 50
e 6 51
e 6 56
e 6 57
e 6 58
e 6 59
e 6 60
e 6 62
e 6 63
e 6 66
e 6 67
e 6 69
e 6 70
e 6 71
e 6 77
e 6 78
e 6 79
e 6 83
e 7 9
e 7 10
e 7 11
e 7 12
e 7 13
e 7 15
e 7 16
e 7 18
e 7 20
e 7 21
e 7 23
e 7 25
e 7 27
e 7 28
e 7 29
e 7 30
e 7 32
e 7 35
e 7 36
e 7 37
e 7 40
e 7 46
e 7 47
e 7 48
e 7 49
e 7 52
e 7 55
e 7 58
e 7 61
e 7 62
e 7 63
e 7 66
e 7 68
e 7 71
e 7 75
e 7 78
e 7 79
e 7 80
e 7 82
e 7 85
e 8 13
e 8 16
e 8 20
e 8 22
e 8 25
e 8 27
e 8 30
e 8 31
e 8 33
e 8 34
e 8 36
e 8 39
e 8 40
e 8 42
e 8 50
e 8 51
e 8 53
e 8 57
e 8 59
e 8 61
e 8 62
e 8 63
e 8 64
e 8 65
e 8 68
e 8 69
e 8 74
e 8 75
e 8 76
e 8 77
e 8 78
e 8 79
e 8 81
e 8 85
e 9 15
e 9 16
e 9 17
e 9 21
e 9 22
e 9 24
e 9 25
e 9 27
e 9 29
e 9 33
e 9 35
e 9 36
e 9 39
e 9 44
e 9 45
e 9 47
e 9 48
e 9 49
e 9 50
e 9 51
e 9 53
e 9 54
e 9 57
e 9 64
e 9 69
e 9 70
e 9 71
e 9 74
e 9 75
e 9 81
e 9 82
e 9 83
e 9 84
e 9 85
e 10 11
e 10 18
e 10 19
e 10 24
e 10 28
e 10 29
e 10 30
e 10 33
e 10 35
e 10 39
e 10 40
e 10 41
e 10 43
e 10 48
e 10 49
e 10 50
e 10 54
e 10 57
e 10 59
e 10 62
e 10 63
e 10 66
e 10 70
e 10 75
e 10 78
e 10 80
e 10 85
e 11 13
e 11 17
e 11 18
e 11 22
e 11 24
e 11 27
e 11 28
e 11 29
e 11 32
e 11 34
e 11 38
e 11 43
e 11 48
e 11 50
e 11 52
e 11 54
e 11 57
e 11 63
e 11 64
e 11 68
e 11 69
e 11 74
e 11 75
e 11 78
e 11 81
e 11 83
e 11 84
e 11 85
e 12 16
e 12 17
e 12 20
e 12 22
e 12 24
e 12 25
e 12 26
e 12 30
e 12 31
e 12 32
e 12 35
e 12 36
e 12 38
e 12 39
e 12 41
e 12 45
e 12 48
e 12 52
e 12 56
e 12 59
e 12 69
e 12 70
e 12 73
e 12 74
e 12 76
e 12 77
e 12 83
e 13 16
e 13 17
e 13 19
e 13 26
e 13 28
e 13 30
e 13 36
e 13 37
e 13 38
e 13 42
e 13 43
e 13 46
e 13 47
e 13 48
e 13 50
e 13 52
e 13 54
e 13 55
e 13 59
e 13 61
e 13 62
e 13 63
e 13 65
e 13 67
e 13 68
e 13 69
e 13 72
e 13 76
e 13 77
e 13 78
e 13 79
e 13 81
e 13 85
e 14 16
e 14 17
e 14 19
e 14 21
e 14 22
e 14 24
e 14 25
e 14 27
e 14 29
e 14 30
e 14 31
e 14 32
e 14 34
e 14 35
e 14 37
e 14 38
e 14 39
e 14 40
e 14 47
e 14 50
e 14 54
e 14 56
e 14 58
e 14 62
e 14 63
e 14 65
e 14 66
e 14 69
e 14 72
e 14 74
e 14 80
e 14 81
e 14 82
e 14 83
e 14 84
e 14 85
e 15 16
e 15 17
e 15 19
e 15 20
e 15 22
e 15 24
e 15 25
e 15 31
e 15 32
e 15 33
e 15 40
e 15 42
e 15 44
e 15 45
e 15 47
e 15 56
e 15 59
e 15 60
e 15 62
e 15 63
e 15 64
e 15 67
e 15 68
e 15 70
e 15 72
e 15 73
e 15 74
e 15 75
e 15 79
e 15 80
e 15 81
e 15 84
e 16 18
e 16 19
e 16 21
e 16 22
e 16 23
e 16 27
e 16 28
e 16 30
e 16 31
e 16 32
e 16 33
e 16 34
e 16 35
e 16 36
e 16 38
e 16 39
e 16 44
e 16 46
e 16 47
e 16 53
e 16 54
e 16 55
e 16 56
e 16 61
e 16 63
e 16 66
e 16 67
e 16 68
e 16 69
e 16 70
e 16 72
e 16 75
e 16 79
e 16 80
e 16 81
e 16 85
e 17 22
e 17 29
e 17 30
e 17 31
e 17 32
e 17 33
e 17 34
e 17 36
e 17 37
e 17 38
e 17 40
e 17 49
e 17 52
e 17 54
e 17 55
e 17 56
e 17 58
e 17 61
e 17 62
e 17 63
e 17 64
e 17 66
e 17 67
e 17 68
e 17 69
e 17 70
e 17 74
e 17 75
e 17 77
e 17 82
e 17 84
e 17 85
e 18 21
e 18 24
e 18 25
e 18 34
e 18 35
e 18 36
e 18 37
e 18 38
e 18 41
e 18 42
e 18 43
e 18 45
e 18 49
e 18 50
e 18 52
e 18 53
e 18 54
e 18 58
e 18 59
e 18 60
e 18 62
e 18 63
e 18 64
e 18 66
e 18 68
e 18 72
e 18 76
e 18 77
e 18 82
e 18 83
e 19 21
e 19 24
e 19 26
e 19 28
e 19 29
e 19 31
e 19 32
e 19 33
e 19 34
e 19 35
e 19 37
e 19 39
e 19 40
e 19 45
e 19 46
e 19 49
e 19 51
e 19 52
e 19 53
e 19 54
e 19 59
e 19 60
e 19 61
e 19 62
e 19 63
e 19 65
e 19 66
e 19 69
e 19 71
e 19 72
e 19 73
e 19 75
e 19 76
e 19 78
e 19 80
e 19 85
e 20 24
e 20 25
e 20 27
e 20 32
e 20 33
e 20 36
e 20 42
e 20 44
e 20 45
e 20 46
e 20 47
e 20 48
e 20 53
e 20 55
e 20 56
e 20 59
e 20 60
e 20 61
e 20 65
e 20 73
e 20 77
e 20 78
e 20 80
e 20 82
e 20 84
e 20 85
e 21 23
e 21 25
e 21 28
e 21 30
e 21 34
e 21 37
e 21 38
e 21 40
e 21 41
e 21 46
e 21 50
e 21 52
e 21 53
e 21 56
e 21 58
e 21 59
e 21 60
e 21 62
e 21 65
e 21 67
e 21 69
e 21 70
e 21 73
e 21 74
e 21 75
e 21 84
e 21 85
e 22 23
e 22 25
e 22 27
e 22 31
e 22 32
e 22 38
e 22 41
e 22 43
e 22 47
e 22 49
e 22 51
e 22 52
e 22 53
e 22 54
e 22 55
e 22 57
e 22 61
e 22 64
e 22 65
e 22 68
e 22 70
e 22 77
e 22 78
e 22 83
e 23 25
e 23 30
e 23 31
e 23 32
e 23 33
e 23 35
e 23 37
e 23 42
e 23 43
e 23 45
e 23 47
e 23 48
e 23 49
e 23 50
e 23 51
e 23 53
e 23 55
e 23 56
e 23 58
e 23 63
e 23 64
e 23 68
e 23 69
e 23 70
e 23 77
e 23 81
e 23 82
e 23 84
e 24 25
e 24 28
e 24 31
e 24 33
e 24 35
e 24 38
e 24 41
e 24 42
e 24 43
e 24 45
e 24 48
e 24 50
e 24 53
e 24 54
e 24 58
e 24 60
e 24 67
e 24 75
e 24 79
e 24 81
e 24 83
e 24 84
e 24 85
e 25 26
e 25 28
e 25 33
e 25 34
e 25 35
e 25 36
e 25 39
e 25 40
e 25 42
e 25 43
e 25 49
e 25 50
e 25 52
e 25 54
e 25 55
e 25 56
e 25 58
e 25 59
e 25 62
e 25 63
e 25 65
e 25 70
e 25 71
e 25 73
e 25 74
e 25 75
e 25 77
e 25 81
e 25 84
e 26 29
e 26 30
e 26 32
e 26 34
e 26 37
e 26 41
e 26 43
e 26 46
e 26 52
e 26 54
e 26 57
e 26 63
e 26 65
e 26 67
e 26 74
e 26 75
e 26 76
e 26 77
e 26 78
e 26 79
e 26 84
e 27 31
e 27 33
e 27 34
e 27 35
e 27 36
e 27 37
e 27 38
e 27 41
e 27 43
e 27 46
e 27 47
e 27 48
e 27 49
e 27 53
e 27 54
e 27 56
e 27 58
e 27 59
e 27 60
e 27 63
e 27 68
e 27 69
e 27 72
e 27 73
e 27 75
e 27 77
e 27 81
e 27 82
e 27 84
e 27 85
e 28 30
e 28 33
e 28 35
e 28 36
e 28 40
e 28 44
e 28 45
e 28 46
e 28 49
e 28 51
e 28 52
e 28 57
e 28 59
e 28 62
e 28 67
e 28 68
e 28 72
e 28 73
e 28 74
e 28 75
e 28 80
e 28 81
e 28 82
e 28 85
e 29 31
e 29 34
e 29 35
e 29 36
e 29 37
e 29 40
e 29 42
e 29 43
e 29 44
e 29 46
e 29 48
e 29 51
e 29 54
e 29 55
e 29 56
e 29 58
e 29 59
e 29 60
e 29 65
e 29 71
e 29 72
e 29 73
e 29 74
e 29 78
e 29 85
e 30 31
e 30 32
e 30 36
e 30 38
e 30 39
e 30 43
e 30 49
e 30 51
e 30 54
e 30 57
e 30 59
e 30 63
e 30 65
e 30 66
e 30 69
e 30 74
e 30 75
e 30 77
e 30 78
e 30 79
e 30 82
e 30 83
e 30 84
e 30 85
e 31 36
e 31 41
e 31 43
e 31 49
e 31 50
e 31 55
e 31 57
e 31 59
e 31 61
e 31 67
e 31 69
e 31 71
e 31 73
e 31 78
e 31 79
e 31 80
e 31 81
e 31 84
e 31 85
e 32 33
e 32 34
e 32 37
e 32 43
e 32 44
e 32 46
e 32 47
e 32 48
e 32 50
e 32 54
e 32 56
e 32 57
e 32 61
e 32 62
e 32 66
e 32 68
e 32 73
e 32 74
e 32 75
e 32 76
e 32 78
e 32 80
e 32 82
e 33 35
e 33 36
e 33 38
e 33 41
e 33 43
e 33 44
e 33 47
e 33 49
e 33 52
e 33 56
e 33 57
e 33 61
e 33 62
e 33 63
e 33 64
e 33 65
e 33 66
e 33 67
e 33 68
e 33 69
e 33 71
e 33 72
e 33 73
e 33 74
e 33 76
e 33 77
e 33 78
e 33 79
e 33 80
e 33 85
e 34 35
e 34 36
e 34 37
e 34 39
e 34 40
e 34 41
e 34 43
e 34 44
e 34 45
e 34 48
e 34 49
e 34 50
e 34 52
e 34 55
e 34 56
e 34 60
e 34 61
e 34 63
e 34 64
e 34 67
e 34 71
e 34 72
e 34 74
e 34 75
e 34 84
e 34 85
e 35 39
e 35 42
e 35 46
e 35 49
e 35 55
e 35 59
e 35 62
e 35 64
e 35 67
e 35 70
e 35 71
e 35 72
e 35 77
e 35 78
e 35 82
e 35 83
e 35 84
e 35 85
e 36 38
e 36 40
e 36 41
e 36 42
e 36 43
e 36 46
e 36 48
e 36 49
e 36 51
e 36 55
e 36 57
e 36 58
e 36 59
e 36 62
e 36 63
e 36 64
e 36 66
e 36 67
e 36 69
e 36 71
e 36 73
e 36 76
e 36 77
e 36 79
e 36 80
e 36 81
e 36 82
e 37 41
e 37 46
e 37 48
e 37 49
e 37 50
e 37 51
e 37 52
e 37 55
e 37 56
e 37 57
e 37 58
e 37 65
e 37 66
e 37 67
e 37 68
e 37 69
e 37 70
e 37 71
e 37 77
e 37 80
e 37 81
e 37 83
e 37 84
e 38 39
e 38 40
e 38 44
e 38 45
e 38 48
e 38 50
e 38 54
e 38 57
e 38 59
e 38 60
e 38 62
e 38 65
e 38 68
e 38 71
e 38 72
e 38 73
e 38 74
e 38 75
e 38 76
e 38 77
e 38 79
e 38 81
e 38 82
e 39 40
e 39 46
e 39 48
e 39 55
e 39 56
e 39 57
e 39 60
e 39 62
e 39 64
e 39 66
e 39 67
e 39 71
e 39 73
e 39 74
e 39 76
e 39 77
e 39 78
e 39 79
e 39 81
e 39 85
e 40 42
e 40 43
e 40 45
e 40 46
e 40 48
e 40 49
e 40 51
e 40 53
e 40 55
e 40 57
e 40 59
e 40 60
e 40 62
e 40 63
e 40 64
e 40 66
e 40 69
e 40 71
e 40 72
e 40 74
e 40 78
e 40 79
e 40 80
e 40 81
e 40 83
e 40 84
e 41 42
e 41 45
e 41 47
e 41 49
e 41 51
e 41 54
e 41 55
e 41 58
e 41 59
e 41 62
e 41 64
e 41 65
e 41 66
e 41 67
e 41 75
e 41 79
e 41 80
e 41 84
e 42 48
e 42 51
e 42 56
e 42 57
e 42 58
e 42 59
e 42 60
e 42 65
e 42 67
e 42 70
e 42 71
e 42 73
e 42 76
e 42 80
e 42 84
e 42 85
e 43 44
e 43 45
e 43 47
e 43 50
e 43 53
e 43 58
e 43 59
e 43 61
e 43 64
e 43 66
e 43 67
e 43 70
e 43 71
e 43 72
e 43 75
e 43 76
e 43 77
e 43 80
e 43 82
e 43 84
e 44 45
e 44 46
e 44 52
e 44 53
e 44 54
e 44 56
e 44 57
e 44 58
e 44 61
e 44 65
e 44 67
e 44 69
e 44 71
e 44 72
e 44 74
e 44 80
e 44 83
e 44 84
e 44 85
e 45 46
e 45 47
e 45 51
e 45 55
e 45 57
e 45 59
e 45 62
e 45 67
e 45 69
e 45 70
e 45 71
e 45 73
e 45 75
e 45 77
e 45 78
e 45 79
e 45 83
e 45 84
e 45 85
e 46 47
e 46 50
e 46 51
e 46 53
e 46 56
e 46 57
e 46 58
e 46 59
e 46 60
e 46 64
e 46 66
e 46 67
e 46 68
e 46 69
e 46 72
e 46 74
e 46 75
e 46 76
e 46 78
e 46 81
e 46 82
e 46 85
e 47 49
e 47 53
e 47 55
e 47 56
e 47 58
e 47 59
e 47 62
e 47 63
e 47 65
e 47 68
e 47 69
e 47 71
e 47 72
e 47 73
e 47 74
e 47 76
e 47 78
e 47 79
e 47 80
e 47 82
e 47 83
e 47 84
e 47 85
e 48 56
e 48 61
e 48 62
e 48 63
e 48 64
e 48 67
e 48 73
e 48 75
e 48 78
e 48 80
e 48 83
e 49 50
e 49 55
e 49 60
e 49 64
e 49 66
e 49 67
e 49 68
e 49 70
e 49 72
e 49 73
e 49 77
e 49 78
e 49 85
e 50 52
e 50 53
e 50 54
e 50 55
e 50 56
e 50 61
e 50 66
e 50 68
e 50 69
e 50 71
e 50 75
e 50 78
e 50 82
e 50 85
e 51 53
e 51 55
e 51 57
e 51 61
e 51 62
e 51 63
e 51 64
e 51 65
e 51 66
e 51 67
e 51 68
e 51 73
e 51 75
e 51 80
e 51 81
e 51 83
e 51 84
e 52 53
e 52 54
e 52 55
e 52 59
e 52 63
e 52 65
e 52 67
e 52 68
e 52 69
e 52 70
e 52 74
e 52 75
e 52 76
e 52 77
e 52 80
e 52 81
e 52 82
e 52 83
e 53 54
e 53 55
e 53 56
e 53 57
e 53 58
e 53 60
e 53 61
e 53 64
e 53 66
e 53 68
e 53 69
e 53 70
e 53 72
e 53 73
e 53 74
e 53 77
e 53 78
e 53 85
e 54 60
e 54 68
e 54 70
e 54 74
e 54 75
e 54 77
e 54 81
e 54 84
e 54 85
e 55 56
e 55 57
e 55 58
e 55 59
e 55 64
e 55 65
e 55 66
e 55 72
e 55 73
e 55 75
e 55 76
e 55 77
e 55 80
e 55 81
e 55 82
e 55 85
e 56 58
e 56 59
e 56 63
e 56 65
e 56 66
e 56 69
e 56 71
e 56 73
e 56 75
e 56 76
e 56 78
e 56 79
e 57 58
e 57 59
e 57 61
e 57 64
e 57 65
e 57 68
e 57 69
e 57 72
e 57 76
e 57 77
e 57 78
e 57 80
e 57 83
e 57 84
e 58 61
e 58 62
e 58 63
e 58 69
e 58 70
e 58 71
e 58 74
e 58 78
e 58 79
e 58 81
e 58 84
e 58 85
e 59 60
e 59 61
e 59 65
e 59 66
e 59 70
e 59 73
e 59 74
e 59 75
e 59 79
e 59 82
e 59 83
e 60 69
e 60 70
e 60 71
e 60 72
e 60 75
e 60 77
e 61 62
e 61 63
e 61 64
e 61 65
e 61 68
e 61 70
e 61 71
e 61 72
e 61 74
e 61 76
e 61 77
e 61 78
e 61 84
e 62 65
e 62 66
e 62 67
e 62 69
e 62 70
e 62 71
e 62 74
e 62 75
e 62 80
e 62 82
e 62 83
e 62 85
e 63 67
e 63 70
e 63 72
e 63 73
e 63 74
e 63 75
e 63 76
e 63 77
e 63 79
e 63 82
e 63 84
e 63 85
e 64 65
e 64 67
e 64 69
e 64 70
e 64 73
e 64 76
e 64 78
e 64 79
e 64 82
e 64 83
e 64 85
e 65 68
e 65 69
e 65 71
e 65 73
e 65 75
e 65 79
e 65 81
e 65 82
e 65 85
e 66 69
e 66 72
e 66 74
e 66 76
e 66 78
e 66 79
e 66 80
e 66 81
e 66 82
e 66 83
e 66 85
e 67 69
e 67 70
e 67 72
e 67 74
e 67 75
e 67 80
e 67 81
e 67 84
e 67 85
e 68 69
e 68 71
e 68 73
e 68 74
e 68 75
e 68 76
e 68 78
e 68 80
e 68 82
e 68 85
e 69 70
e 69 71
e 69 74
e 69 76
e 69 77
e 69 79
e 69 80
e 69 85
e 70 72
e 70 74
e 70 75
e 70 79
e 70 80
e 70 81
e 70 82
e 71 72
e 71 74
e 71 75
e 71 76
e 71 77
e 71 78
e 72 73
e 72 76
e 72 78
e 72 79
e 72 81
e 72 85
e 73 75
e 73 79
e 73 81
e 73 83
e 73 84
e 74 75
e 74 76
e 74 77
e 74 79
e 74 81
e 74 82
e 74 85
e 75 76
e 75 78
e 75 79
e 75 82
e 75 84
e 76 78
e 76 79
e 76 80
e 76 81
e 77 79
e 77 81
e 77 82
e 77 85
e 78 81
e 78 82
e 78 83
e 79 80
e 79 82
e 79 84
e 79 85
e 80 83
e 80 84
e 81 85
e 82 85
e 84 85
